26012.4
15 27 92 97 1 86 90 32 55 33 80 22 3 20 99 12 78 57 91 44 0 4 74 52 84 66 61 89 23 94 31 96 40 7 26 95 21 54 13 77 72 46 38 68 87 60 69 10 25 16 14 79 42 49 81 47 58 17 37 53 29 36 65 75 62 48 19 73 71 51 2 82 83 63 88 64 41 76 30 18 24 56 28 8 43 93 34 98 5 6 45 59 35 67 85 70 9 39 11 50 
